(declare-fun v1 ()Bool         )
(declare-fun v7 () (_ BitVec 7))
(assert
(let (($e6 (_ bv2 2)))
(let (($e42 (_ bv31 5)))
(let (($e46 (_ bv0 6)))
(let (($e375 (concat $e42  $e6)))
(let (($e519 (concat $e46 v1   )))
(let (($e522 (bvand        $e375         v7    )))
(let (($e523 (bvand $e522 $e519)))
              (ite        v1      $e522 $e523)
                                                                                                                                                                                                                                                                                                                                                                                                                                                                                                                                                                                                                                                                                                                                                                                                                                                                                                                                                                                                                                                                                                                                                                                                                                                                                                                                                                                                                                                                                                                                                                                                                                                                                                                                                                                                                                                                                                                                                                                                                                                                                                                                                                                                                                                                                                                                                                                                                                                                                                                                                                                                                                                                                                                                                                                                                                                                                                                                                                                                                                                                                                                                                                                                                                                                                                                                                                                                                                                                                                                                                                                                                                                                                                                                                                                                                                                                                                                                                                                                                                                                                                                                                                                                                                                                                                                                                                                                                                                                                                                                                                                                                                 ))  )                                                                                                                                               )                                                                                                                                                                                                                                                                                                                     )   )                                   )     )
